projet_m2_wvcp/projet_m2_wvcp/original_wvcp_dzn/r12.clq.dzn
cliques=[{1,5,7,6,9,8,2,0,10,3,4},{1,172,143,107,60,17,27,161,72,48,84,120},{131,191,96,40,151,108,181,49,2,121},{1,5,7,6,9,8,2,0,10,3,4},{1,5,7,6,9,8,2,0,10,3,4},{1,5,7,6,9,8,2,0,10,3,4},{154,21,112,32,6,63,75,53,125,146},{185,164,175,64,7,134,126,90,41,147,33,54,197},{34,42,100,135,127,155,22,8,65,186,55,113},{23,66,156,76,165,9,136,198,148,56,128,114,187},{157,115,149,129,43,137,77,101,10,166,67,24},{23,11,20,21,13,17,16,18,14,12,19,22,15,24},{23,11,20,21,13,17,16,18,14,12,19,22,15,24},{23,11,20,21,13,17,16,18,14,12,19,22,15,24},{23,11,20,21,13,17,16,18,14,12,19,22,15,24},{23,11,20,21,13,17,16,18,14,12,19,22,15,24},{23,11,20,21,13,17,16,18,14,12,19,22,15,24},{23,11,20,21,13,17,16,18,14,12,19,22,15,24},{23,11,20,21,13,17,16,18,14,12,19,22,15,24},{23,11,20,21,13,17,16,18,14,12,19,22,15,24},{23,11,20,21,13,17,16,18,14,12,19,22,15,24},{23,11,20,21,13,17,16,18,14,12,19,22,15,24},{23,11,20,21,13,17,16,18,14,12,19,22,15,24},{23,11,20,21,13,17,16,18,14,12,19,22,15,24},{23,11,20,21,13,17,16,18,14,12,19,22,15,24},{25,79,103,12,159,168,36,68,139,45,177,92,117},{25,34,30,32,27,28,26,31,33,29},{1,172,143,107,60,17,27,161,72,48,84,120},{25,34,30,32,27,28,26,31,33,29},{25,34,30,32,27,28,26,31,33,29},{195,30,88,62,110,74,163,19,98,123},{25,34,30,32,27,28,26,31,33,29},{25,34,30,32,27,28,26,31,33,29},{185,164,175,64,7,134,126,90,41,147,33,54,197},{34,42,100,135,127,155,22,8,65,186,55,113},{11,167,176,91,158,78,138,35,102,44,188,116},{25,79,103,12,159,168,36,68,139,45,177,92,117},{178,189,13,80,160,140,37,104,0,169},{190,93,38,46,69,57,130,179,81,170,14},{106,119,39,16,47,150,71,59,95,142,83},{131,191,96,40,151,108,181,49,2,121},{185,164,175,64,7,134,126,90,41,147,33,54,197},{34,42,100,135,127,155,22,8,65,186,55,113},{157,115,149,129,43,137,77,101,10,166,67,24},{11,167,176,91,158,78,138,35,102,44,188,116},{25,79,103,12,159,168,36,68,139,45,177,92,117},{190,93,38,46,69,57,130,179,81,170,14},{106,119,39,16,47,150,71,59,95,142,83},{1,172,143,107,60,17,27,161,72,48,84,120},{46,51,47,53,56,49,48,54,44,45,50,52,55},{46,51,47,53,56,49,48,54,44,45,50,52,55},{46,51,47,53,56,49,48,54,44,45,50,52,55},{46,51,47,53,56,49,48,54,44,45,50,52,55},{46,51,47,53,56,49,48,54,44,45,50,52,55},{185,164,175,64,7,134,126,90,41,147,33,54,197},{34,42,100,135,127,155,22,8,65,186,55,113},{23,66,156,76,165,9,136,198,148,56,128,114,187},{190,93,38,46,69,57,130,179,81,170,14},{66,60,61,64,57,62,59,63,65,67,58},{106,119,39,16,47,150,71,59,95,142,83},{1,172,143,107,60,17,27,161,72,48,84,120},{66,60,61,64,57,62,59,63,65,67,58},{66,60,61,64,57,62,59,63,65,67,58},{66,60,61,64,57,62,59,63,65,67,58},{185,164,175,64,7,134,126,90,41,147,33,54,197},{66,60,61,64,57,62,59,63,65,67,58},{23,66,156,76,165,9,136,198,148,56,128,114,187},{66,60,61,64,57,62,59,63,65,67,58},{25,79,103,12,159,168,36,68,139,45,177,92,117},{190,93,38,46,69,57,130,179,81,170,14},{180,171,105,70,141,26,94,118,58,15,82},{106,119,39,16,47,150,71,59,95,142,83},{1,172,143,107,60,17,27,161,72,48,84,120},{76,69,70,71,74,75,72,77,68,73},{195,30,88,62,110,74,163,19,98,123},{154,21,112,32,6,63,75,53,125,146},{23,66,156,76,165,9,136,198,148,56,128,114,187},{157,115,149,129,43,137,77,101,10,166,67,24},{85,88,79,80,81,90,78,87,89,83,84,82,86},{25,79,103,12,159,168,36,68,139,45,177,92,117},{85,88,79,80,81,90,78,87,89,83,84,82,86},{190,93,38,46,69,57,130,179,81,170,14},{85,88,79,80,81,90,78,87,89,83,84,82,86},{106,119,39,16,47,150,71,59,95,142,83},{1,172,143,107,60,17,27,161,72,48,84,120},{85,88,79,80,81,90,78,87,89,83,84,82,86},{85,88,79,80,81,90,78,87,89,83,84,82,86},{85,88,79,80,81,90,78,87,89,83,84,82,86},{85,88,79,80,81,90,78,87,89,83,84,82,86},{85,88,79,80,81,90,78,87,89,83,84,82,86},{185,164,175,64,7,134,126,90,41,147,33,54,197},{11,167,176,91,158,78,138,35,102,44,188,116},{25,79,103,12,159,168,36,68,139,45,177,92,117},{190,93,38,46,69,57,130,179,81,170,14},{180,171,105,70,141,26,94,118,58,15,82},{106,119,39,16,47,150,71,59,95,142,83},{131,191,96,40,151,108,181,49,2,121},{100,93,96,91,95,94,98,101,92,99,97},{195,30,88,62,110,74,163,19,98,123},{100,93,96,91,95,94,98,101,92,99,97},{34,42,100,135,127,155,22,8,65,186,55,113},{157,115,149,129,43,137,77,101,10,166,67,24},{106,107,115,103,105,112,110,108,111,102,104,114,113,109},{106,107,115,103,105,112,110,108,111,102,104,114,113,109},{106,107,115,103,105,112,110,108,111,102,104,114,113,109},{106,107,115,103,105,112,110,108,111,102,104,114,113,109},{106,107,115,103,105,112,110,108,111,102,104,114,113,109},{106,107,115,103,105,112,110,108,111,102,104,114,113,109},{106,107,115,103,105,112,110,108,111,102,104,114,113,109},{106,107,115,103,105,112,110,108,111,102,104,114,113,109},{106,107,115,103,105,112,110,108,111,102,104,114,113,109},{106,107,115,103,105,112,110,108,111,102,104,114,113,109},{106,107,115,103,105,112,110,108,111,102,104,114,113,109},{106,107,115,103,105,112,110,108,111,102,104,114,113,109},{106,107,115,103,105,112,110,108,111,102,104,114,113,109},{106,107,115,103,105,112,110,108,111,102,104,114,113,109},{119,122,129,126,127,125,128,123,118,121,117,120,124,116},{25,79,103,12,159,168,36,68,139,45,177,92,117},{119,122,129,126,127,125,128,123,118,121,117,120,124,116},{106,119,39,16,47,150,71,59,95,142,83},{1,172,143,107,60,17,27,161,72,48,84,120},{119,122,129,126,127,125,128,123,118,121,117,120,124,116},{119,122,129,126,127,125,128,123,118,121,117,120,124,116},{119,122,129,126,127,125,128,123,118,121,117,120,124,116},{119,122,129,126,127,125,128,123,118,121,117,120,124,116},{119,122,129,126,127,125,128,123,118,121,117,120,124,116},{185,164,175,64,7,134,126,90,41,147,33,54,197},{119,122,129,126,127,125,128,123,118,121,117,120,124,116},{23,66,156,76,165,9,136,198,148,56,128,114,187},{157,115,149,129,43,137,77,101,10,166,67,24},{190,93,38,46,69,57,130,179,81,170,14},{131,191,96,40,151,108,181,49,2,121},{173,182,193,132,145,3,50,97,73,109,86,153},{133,183,61,51,174,194,87,162,29,4},{185,164,175,64,7,134,126,90,41,147,33,54,197},{34,42,100,135,127,155,22,8,65,186,55,113},{23,66,156,76,165,9,136,198,148,56,128,114,187},{157,115,149,129,43,137,77,101,10,166,67,24},{11,167,176,91,158,78,138,35,102,44,188,116},{25,79,103,12,159,168,36,68,139,45,177,92,117},{143,149,141,140,138,147,148,145,144,139,142,146},{143,149,141,140,138,147,148,145,144,139,142,146},{106,119,39,16,47,150,71,59,95,142,83},{1,172,143,107,60,17,27,161,72,48,84,120},{143,149,141,140,138,147,148,145,144,139,142,146},{143,149,141,140,138,147,148,145,144,139,142,146},{143,149,141,140,138,147,148,145,144,139,142,146},{185,164,175,64,7,134,126,90,41,147,33,54,197},{23,66,156,76,165,9,136,198,148,56,128,114,187},{157,115,149,129,43,137,77,101,10,166,67,24},{106,119,39,16,47,150,71,59,95,142,83},{131,191,96,40,151,108,181,49,2,121},{157,154,156,152,150,151,155,153},{173,182,193,132,145,3,50,97,73,109,86,153},{154,21,112,32,6,63,75,53,125,146},{34,42,100,135,127,155,22,8,65,186,55,113},{23,66,156,76,165,9,136,198,148,56,128,114,187},{157,115,149,129,43,137,77,101,10,166,67,24},{11,167,176,91,158,78,138,35,102,44,188,116},{25,79,103,12,159,168,36,68,139,45,177,92,117},{178,189,13,80,160,140,37,104,0,169},{1,172,143,107,60,17,27,161,72,48,84,120},{133,183,61,51,174,194,87,162,29,4},{195,30,88,62,110,74,163,19,98,123},{185,164,175,64,7,134,126,90,41,147,33,54,197},{23,66,156,76,165,9,136,198,148,56,128,114,187},{157,115,149,129,43,137,77,101,10,166,67,24},{11,167,176,91,158,78,138,35,102,44,188,116},{25,79,103,12,159,168,36,68,139,45,177,92,117},{172,173,171,175,167,170,174,168,169},{190,93,38,46,69,57,130,179,81,170,14},{172,173,171,175,167,170,174,168,169},{1,172,143,107,60,17,27,161,72,48,84,120},{172,173,171,175,167,170,174,168,169},{172,173,171,175,167,170,174,168,169},{185,164,175,64,7,134,126,90,41,147,33,54,197},{178,180,182,183,185,179,184,176,181,186,177,187},{178,180,182,183,185,179,184,176,181,186,177,187},{178,180,182,183,185,179,184,176,181,186,177,187},{190,93,38,46,69,57,130,179,81,170,14},{178,180,182,183,185,179,184,176,181,186,177,187},{178,180,182,183,185,179,184,176,181,186,177,187},{178,180,182,183,185,179,184,176,181,186,177,187},{178,180,182,183,185,179,184,176,181,186,177,187},{178,180,182,183,185,179,184,176,181,186,177,187},{185,164,175,64,7,134,126,90,41,147,33,54,197},{178,180,182,183,185,179,184,176,181,186,177,187},{23,66,156,76,165,9,136,198,148,56,128,114,187},{190,195,191,189,193,192,194,198,196,197,188},{190,195,191,189,193,192,194,198,196,197,188},{190,93,38,46,69,57,130,179,81,170,14},{190,195,191,189,193,192,194,198,196,197,188},{190,195,191,189,193,192,194,198,196,197,188},{190,195,191,189,193,192,194,198,196,197,188},{190,195,191,189,193,192,194,198,196,197,188},{190,195,191,189,193,192,194,198,196,197,188},{190,195,191,189,193,192,194,198,196,197,188},{185,164,175,64,7,134,126,90,41,147,33,54,197},{23,66,156,76,165,9,136,198,148,56,128,114,187}];
nr_cliques=199;
