projet_m2_wvcp/projet_m2_wvcp/original_wvcp_dzn/r12.dzn
name="r12";
nr_vertices=199;
nr_edges=2055;
neighborhoods=[{1,2,3,4,5,6,7,8,9,10,13,37,80,104,140,160,169,178,189},{0,2,3,4,5,6,7,8,9,10,17,27,48,60,72,84,107,120,143,161,172},{0,1,3,4,5,6,7,8,9,10,40,49,96,108,121,131,151,181,191},{0,1,2,4,5,6,7,8,9,10,50,73,86,97,109,132,145,153,173,182,193},{0,1,2,3,5,6,7,8,9,10,29,51,61,87,133,162,174,183,194},{0,1,2,3,4,6,7,8,9,10,20,31,52,89,99,111,124,184,196},{0,1,2,3,4,5,7,8,9,10,21,32,53,63,75,112,125,146,154},{0,1,2,3,4,5,6,8,9,10,33,41,54,64,90,126,134,147,164,175,185,197},{0,1,2,3,4,5,6,7,9,10,22,34,42,55,65,100,113,127,135,155,186},{0,1,2,3,4,5,6,7,8,10,23,56,66,76,114,128,136,148,156,165,187,198},{0,1,2,3,4,5,6,7,8,9,24,43,67,77,101,115,129,137,149,157,166},{12,13,14,15,16,17,18,19,20,21,22,23,24,35,44,78,91,102,116,138,158,167,176,188},{11,13,14,15,16,17,18,19,20,21,22,23,24,25,36,45,68,79,92,103,117,139,159,168,177},{0,11,12,14,15,16,17,18,19,20,21,22,23,24,37,80,104,140,160,169,178,189},{11,12,13,15,16,17,18,19,20,21,22,23,24,38,46,57,69,81,93,130,170,179,190},{11,12,13,14,16,17,18,19,20,21,22,23,24,26,58,70,82,94,105,118,141,171,180},{11,12,13,14,15,17,18,19,20,21,22,23,24,39,47,59,71,83,95,106,119,142,150},{1,11,12,13,14,15,16,18,19,20,21,22,23,24,27,48,60,72,84,107,120,143,161,172},{11,12,13,14,15,16,17,19,20,21,22,23,24,28,85,122,144,152,192},{11,12,13,14,15,16,17,18,20,21,22,23,24,30,62,74,88,98,110,123,163,195},{5,11,12,13,14,15,16,17,18,19,21,22,23,24,31,52,89,99,111,124,184,196},{6,11,12,13,14,15,16,17,18,19,20,22,23,24,32,53,63,75,112,125,146,154},{8,11,12,13,14,15,16,17,18,19,20,21,23,24,34,42,55,65,100,113,127,135,155,186},{9,11,12,13,14,15,16,17,18,19,20,21,22,24,56,66,76,114,128,136,148,156,165,187,198},{10,11,12,13,14,15,16,17,18,19,20,21,22,23,43,67,77,101,115,129,137,149,157,166},{12,26,27,28,29,30,31,32,33,34,36,45,68,79,92,103,117,139,159,168,177},{15,25,27,28,29,30,31,32,33,34,58,70,82,94,105,118,141,171,180},{1,17,25,26,28,29,30,31,32,33,34,48,60,72,84,107,120,143,161,172},{18,25,26,27,29,30,31,32,33,34,85,122,144,152,192},{4,25,26,27,28,30,31,32,33,34,51,61,87,133,162,174,183,194},{19,25,26,27,28,29,31,32,33,34,62,74,88,98,110,123,163,195},{5,20,25,26,27,28,29,30,32,33,34,52,89,99,111,124,184,196},{6,21,25,26,27,28,29,30,31,33,34,53,63,75,112,125,146,154},{7,25,26,27,28,29,30,31,32,34,41,54,64,90,126,134,147,164,175,185,197},{8,22,25,26,27,28,29,30,31,32,33,42,55,65,100,113,127,135,155,186},{11,36,37,38,39,40,41,42,43,44,78,91,102,116,138,158,167,176,188},{12,25,35,37,38,39,40,41,42,43,45,68,79,92,103,117,139,159,168,177},{0,13,35,36,38,39,40,41,42,43,80,104,140,160,169,178,189},{14,35,36,37,39,40,41,42,43,46,57,69,81,93,130,170,179,190},{16,35,36,37,38,40,41,42,43,47,59,71,83,95,106,119,142,150},{2,35,36,37,38,39,41,42,43,49,96,108,121,131,151,181,191},{7,33,35,36,37,38,39,40,42,43,54,64,90,126,134,147,164,175,185,197},{8,22,34,35,36,37,38,39,40,41,43,55,65,100,113,127,135,155,186},{10,24,35,36,37,38,39,40,41,42,67,77,101,115,129,137,149,157,166},{11,35,45,46,47,48,49,50,51,52,53,54,55,56,78,91,102,116,138,158,167,176,188},{12,25,36,44,46,47,48,49,50,51,52,53,54,55,56,68,79,92,103,117,139,159,168,177},{14,38,44,45,47,48,49,50,51,52,53,54,55,56,57,69,81,93,130,170,179,190},{16,39,44,45,46,48,49,50,51,52,53,54,55,56,59,71,83,95,106,119,142,150},{1,17,27,44,45,46,47,49,50,51,52,53,54,55,56,60,72,84,107,120,143,161,172},{2,40,44,45,46,47,48,50,51,52,53,54,55,56,96,108,121,131,151,181,191},{3,44,45,46,47,48,49,51,52,53,54,55,56,73,86,97,109,132,145,153,173,182,193},{4,29,44,45,46,47,48,49,50,52,53,54,55,56,61,87,133,162,174,183,194},{5,20,31,44,45,46,47,48,49,50,51,53,54,55,56,89,99,111,124,184,196},{6,21,32,44,45,46,47,48,49,50,51,52,54,55,56,63,75,112,125,146,154},{7,33,41,44,45,46,47,48,49,50,51,52,53,55,56,64,90,126,134,147,164,175,185,197},{8,22,34,42,44,45,46,47,48,49,50,51,52,53,54,56,65,100,113,127,135,155,186},{9,23,44,45,46,47,48,49,50,51,52,53,54,55,66,76,114,128,136,148,156,165,187,198},{14,38,46,58,59,60,61,62,63,64,65,66,67,69,81,93,130,170,179,190},{15,26,57,59,60,61,62,63,64,65,66,67,70,82,94,105,118,141,171,180},{16,39,47,57,58,60,61,62,63,64,65,66,67,71,83,95,106,119,142,150},{1,17,27,48,57,58,59,61,62,63,64,65,66,67,72,84,107,120,143,161,172},{4,29,51,57,58,59,60,62,63,64,65,66,67,87,133,162,174,183,194},{19,30,57,58,59,60,61,63,64,65,66,67,74,88,98,110,123,163,195},{6,21,32,53,57,58,59,60,61,62,64,65,66,67,75,112,125,146,154},{7,33,41,54,57,58,59,60,61,62,63,65,66,67,90,126,134,147,164,175,185,197},{8,22,34,42,55,57,58,59,60,61,62,63,64,66,67,100,113,127,135,155,186},{9,23,56,57,58,59,60,61,62,63,64,65,67,76,114,128,136,148,156,165,187,198},{10,24,43,57,58,59,60,61,62,63,64,65,66,77,101,115,129,137,149,157,166},{12,25,36,45,69,70,71,72,73,74,75,76,77,79,92,103,117,139,159,168,177},{14,38,46,57,68,70,71,72,73,74,75,76,77,81,93,130,170,179,190},{15,26,58,68,69,71,72,73,74,75,76,77,82,94,105,118,141,171,180},{16,39,47,59,68,69,70,72,73,74,75,76,77,83,95,106,119,142,150},{1,17,27,48,60,68,69,70,71,73,74,75,76,77,84,107,120,143,161,172},{3,50,68,69,70,71,72,74,75,76,77,86,97,109,132,145,153,173,182,193},{19,30,62,68,69,70,71,72,73,75,76,77,88,98,110,123,163,195},{6,21,32,53,63,68,69,70,71,72,73,74,76,77,112,125,146,154},{9,23,56,66,68,69,70,71,72,73,74,75,77,114,128,136,148,156,165,187,198},{10,24,43,67,68,69,70,71,72,73,74,75,76,101,115,129,137,149,157,166},{11,35,44,79,80,81,82,83,84,85,86,87,88,89,90,91,102,116,138,158,167,176,188},{12,25,36,45,68,78,80,81,82,83,84,85,86,87,88,89,90,92,103,117,139,159,168,177},{0,13,37,78,79,81,82,83,84,85,86,87,88,89,90,104,140,160,169,178,189},{14,38,46,57,69,78,79,80,82,83,84,85,86,87,88,89,90,93,130,170,179,190},{15,26,58,70,78,79,80,81,83,84,85,86,87,88,89,90,94,105,118,141,171,180},{16,39,47,59,71,78,79,80,81,82,84,85,86,87,88,89,90,95,106,119,142,150},{1,17,27,48,60,72,78,79,80,81,82,83,85,86,87,88,89,90,107,120,143,161,172},{18,28,78,79,80,81,82,83,84,86,87,88,89,90,122,144,152,192},{3,50,73,78,79,80,81,82,83,84,85,87,88,89,90,97,109,132,145,153,173,182,193},{4,29,51,61,78,79,80,81,82,83,84,85,86,88,89,90,133,162,174,183,194},{19,30,62,74,78,79,80,81,82,83,84,85,86,87,89,90,98,110,123,163,195},{5,20,31,52,78,79,80,81,82,83,84,85,86,87,88,90,99,111,124,184,196},{7,33,41,54,64,78,79,80,81,82,83,84,85,86,87,88,89,126,134,147,164,175,185,197},{11,35,44,78,92,93,94,95,96,97,98,99,100,101,102,116,138,158,167,176,188},{12,25,36,45,68,79,91,93,94,95,96,97,98,99,100,101,103,117,139,159,168,177},{14,38,46,57,69,81,91,92,94,95,96,97,98,99,100,101,130,170,179,190},{15,26,58,70,82,91,92,93,95,96,97,98,99,100,101,105,118,141,171,180},{16,39,47,59,71,83,91,92,93,94,96,97,98,99,100,101,106,119,142,150},{2,40,49,91,92,93,94,95,97,98,99,100,101,108,121,131,151,181,191},{3,50,73,86,91,92,93,94,95,96,98,99,100,101,109,132,145,153,173,182,193},{19,30,62,74,88,91,92,93,94,95,96,97,99,100,101,110,123,163,195},{5,20,31,52,89,91,92,93,94,95,96,97,98,100,101,111,124,184,196},{8,22,34,42,55,65,91,92,93,94,95,96,97,98,99,101,113,127,135,155,186},{10,24,43,67,77,91,92,93,94,95,96,97,98,99,100,115,129,137,149,157,166},{11,35,44,78,91,103,104,105,106,107,108,109,110,111,112,113,114,115,116,138,158,167,176,188},{12,25,36,45,68,79,92,102,104,105,106,107,108,109,110,111,112,113,114,115,117,139,159,168,177},{0,13,37,80,102,103,105,106,107,108,109,110,111,112,113,114,115,140,160,169,178,189},{15,26,58,70,82,94,102,103,104,106,107,108,109,110,111,112,113,114,115,118,141,171,180},{16,39,47,59,71,83,95,102,103,104,105,107,108,109,110,111,112,113,114,115,119,142,150},{1,17,27,48,60,72,84,102,103,104,105,106,108,109,110,111,112,113,114,115,120,143,161,172},{2,40,49,96,102,103,104,105,106,107,109,110,111,112,113,114,115,121,131,151,181,191},{3,50,73,86,97,102,103,104,105,106,107,108,110,111,112,113,114,115,132,145,153,173,182,193},{19,30,62,74,88,98,102,103,104,105,106,107,108,109,111,112,113,114,115,123,163,195},{5,20,31,52,89,99,102,103,104,105,106,107,108,109,110,112,113,114,115,124,184,196},{6,21,32,53,63,75,102,103,104,105,106,107,108,109,110,111,113,114,115,125,146,154},{8,22,34,42,55,65,100,102,103,104,105,106,107,108,109,110,111,112,114,115,127,135,155,186},{9,23,56,66,76,102,103,104,105,106,107,108,109,110,111,112,113,115,128,136,148,156,165,187,198},{10,24,43,67,77,101,102,103,104,105,106,107,108,109,110,111,112,113,114,129,137,149,157,166},{11,35,44,78,91,102,117,118,119,120,121,122,123,124,125,126,127,128,129,138,158,167,176,188},{12,25,36,45,68,79,92,103,116,118,119,120,121,122,123,124,125,126,127,128,129,139,159,168,177},{15,26,58,70,82,94,105,116,117,119,120,121,122,123,124,125,126,127,128,129,141,171,180},{16,39,47,59,71,83,95,106,116,117,118,120,121,122,123,124,125,126,127,128,129,142,150},{1,17,27,48,60,72,84,107,116,117,118,119,121,122,123,124,125,126,127,128,129,143,161,172},{2,40,49,96,108,116,117,118,119,120,122,123,124,125,126,127,128,129,131,151,181,191},{18,28,85,116,117,118,119,120,121,123,124,125,126,127,128,129,144,152,192},{19,30,62,74,88,98,110,116,117,118,119,120,121,122,124,125,126,127,128,129,163,195},{5,20,31,52,89,99,111,116,117,118,119,120,121,122,123,125,126,127,128,129,184,196},{6,21,32,53,63,75,112,116,117,118,119,120,121,122,123,124,126,127,128,129,146,154},{7,33,41,54,64,90,116,117,118,119,120,121,122,123,124,125,127,128,129,134,147,164,175,185,197},{8,22,34,42,55,65,100,113,116,117,118,119,120,121,122,123,124,125,126,128,129,135,155,186},{9,23,56,66,76,114,116,117,118,119,120,121,122,123,124,125,126,127,129,136,148,156,165,187,198},{10,24,43,67,77,101,115,116,117,118,119,120,121,122,123,124,125,126,127,128,137,149,157,166},{14,38,46,57,69,81,93,131,132,133,134,135,136,137,170,179,190},{2,40,49,96,108,121,130,132,133,134,135,136,137,151,181,191},{3,50,73,86,97,109,130,131,133,134,135,136,137,145,153,173,182,193},{4,29,51,61,87,130,131,132,134,135,136,137,162,174,183,194},{7,33,41,54,64,90,126,130,131,132,133,135,136,137,147,164,175,185,197},{8,22,34,42,55,65,100,113,127,130,131,132,133,134,136,137,155,186},{9,23,56,66,76,114,128,130,131,132,133,134,135,137,148,156,165,187,198},{10,24,43,67,77,101,115,129,130,131,132,133,134,135,136,149,157,166},{11,35,44,78,91,102,116,139,140,141,142,143,144,145,146,147,148,149,158,167,176,188},{12,25,36,45,68,79,92,103,117,138,140,141,142,143,144,145,146,147,148,149,159,168,177},{0,13,37,80,104,138,139,141,142,143,144,145,146,147,148,149,160,169,178,189},{15,26,58,70,82,94,105,118,138,139,140,142,143,144,145,146,147,148,149,171,180},{16,39,47,59,71,83,95,106,119,138,139,140,141,143,144,145,146,147,148,149,150},{1,17,27,48,60,72,84,107,120,138,139,140,141,142,144,145,146,147,148,149,161,172},{18,28,85,122,138,139,140,141,142,143,145,146,147,148,149,152,192},{3,50,73,86,97,109,132,138,139,140,141,142,143,144,146,147,148,149,153,173,182,193},{6,21,32,53,63,75,112,125,138,139,140,141,142,143,144,145,147,148,149,154},{7,33,41,54,64,90,126,134,138,139,140,141,142,143,144,145,146,148,149,164,175,185,197},{9,23,56,66,76,114,128,136,138,139,140,141,142,143,144,145,146,147,149,156,165,187,198},{10,24,43,67,77,101,115,129,137,138,139,140,141,142,143,144,145,146,147,148,157,166},{16,39,47,59,71,83,95,106,119,142,151,152,153,154,155,156,157},{2,40,49,96,108,121,131,150,152,153,154,155,156,157,181,191},{18,28,85,122,144,150,151,153,154,155,156,157,192},{3,50,73,86,97,109,132,145,150,151,152,154,155,156,157,173,182,193},{6,21,32,53,63,75,112,125,146,150,151,152,153,155,156,157},{8,22,34,42,55,65,100,113,127,135,150,151,152,153,154,156,157,186},{9,23,56,66,76,114,128,136,148,150,151,152,153,154,155,157,165,187,198},{10,24,43,67,77,101,115,129,137,149,150,151,152,153,154,155,156,166},{11,35,44,78,91,102,116,138,159,160,161,162,163,164,165,166,167,176,188},{12,25,36,45,68,79,92,103,117,139,158,160,161,162,163,164,165,166,168,177},{0,13,37,80,104,140,158,159,161,162,163,164,165,166,169,178,189},{1,17,27,48,60,72,84,107,120,143,158,159,160,162,163,164,165,166,172},{4,29,51,61,87,133,158,159,160,161,163,164,165,166,174,183,194},{19,30,62,74,88,98,110,123,158,159,160,161,162,164,165,166,195},{7,33,41,54,64,90,126,134,147,158,159,160,161,162,163,165,166,175,185,197},{9,23,56,66,76,114,128,136,148,156,158,159,160,161,162,163,164,166,187,198},{10,24,43,67,77,101,115,129,137,149,157,158,159,160,161,162,163,164,165},{11,35,44,78,91,102,116,138,158,168,169,170,171,172,173,174,175,176,188},{12,25,36,45,68,79,92,103,117,139,159,167,169,170,171,172,173,174,175,177},{0,13,37,80,104,140,160,167,168,170,171,172,173,174,175,178,189},{14,38,46,57,69,81,93,130,167,168,169,171,172,173,174,175,179,190},{15,26,58,70,82,94,105,118,141,167,168,169,170,172,173,174,175,180},{1,17,27,48,60,72,84,107,120,143,161,167,168,169,170,171,173,174,175},{3,50,73,86,97,109,132,145,153,167,168,169,170,171,172,174,175,182,193},{4,29,51,61,87,133,162,167,168,169,170,171,172,173,175,183,194},{7,33,41,54,64,90,126,134,147,164,167,168,169,170,171,172,173,174,185,197},{11,35,44,78,91,102,116,138,158,167,177,178,179,180,181,182,183,184,185,186,187,188},{12,25,36,45,68,79,92,103,117,139,159,168,176,178,179,180,181,182,183,184,185,186,187},{0,13,37,80,104,140,160,169,176,177,179,180,181,182,183,184,185,186,187,189},{14,38,46,57,69,81,93,130,170,176,177,178,180,181,182,183,184,185,186,187,190},{15,26,58,70,82,94,105,118,141,171,176,177,178,179,181,182,183,184,185,186,187},{2,40,49,96,108,121,131,151,176,177,178,179,180,182,183,184,185,186,187,191},{3,50,73,86,97,109,132,145,153,173,176,177,178,179,180,181,183,184,185,186,187,193},{4,29,51,61,87,133,162,174,176,177,178,179,180,181,182,184,185,186,187,194},{5,20,31,52,89,99,111,124,176,177,178,179,180,181,182,183,185,186,187,196},{7,33,41,54,64,90,126,134,147,164,175,176,177,178,179,180,181,182,183,184,186,187,197},{8,22,34,42,55,65,100,113,127,135,155,176,177,178,179,180,181,182,183,184,185,187},{9,23,56,66,76,114,128,136,148,156,165,176,177,178,179,180,181,182,183,184,185,186,198},{11,35,44,78,91,102,116,138,158,167,176,189,190,191,192,193,194,195,196,197,198},{0,13,37,80,104,140,160,169,178,188,190,191,192,193,194,195,196,197,198},{14,38,46,57,69,81,93,130,170,179,188,189,191,192,193,194,195,196,197,198},{2,40,49,96,108,121,131,151,181,188,189,190,192,193,194,195,196,197,198},{18,28,85,122,144,152,188,189,190,191,193,194,195,196,197,198},{3,50,73,86,97,109,132,145,153,173,182,188,189,190,191,192,194,195,196,197,198},{4,29,51,61,87,133,162,174,183,188,189,190,191,192,193,195,196,197,198},{19,30,62,74,88,98,110,123,163,188,189,190,191,192,193,194,196,197,198},{5,20,31,52,89,99,111,124,184,188,189,190,191,192,193,194,195,197,198},{7,33,41,54,64,90,126,134,147,164,175,185,188,189,190,191,192,193,194,195,196,198},{9,23,56,66,76,114,128,136,148,156,165,187,188,189,190,191,192,193,194,195,196,197}];
weights=[319,704,322,287,225,657,530,536,348,528,318,669,508,618,529,229,574,617,553,467,663,637,357,686,207,697,444,509,446,247,642,420,531,371,693,363,470,352,651,676,549,450,676,567,315,286,636,554,319,361,262,605,258,429,315,237,371,596,244,516,650,631,538,489,600,341,682,255,324,607,536,532,388,236,498,483,637,338,453,630,585,557,222,239,236,650,217,314,636,248,455,498,255,659,359,400,582,247,345,251,660,328,351,588,330,546,695,672,489,220,507,374,534,223,300,661,206,239,262,677,234,260,653,321,228,354,463,392,353,610,579,659,438,698,534,507,480,365,433,316,444,478,277,677,329,381,217,422,417,620,534,514,564,213,678,368,650,697,463,495,522,452,304,493,628,604,291,593,484,287,548,643,681,656,520,603,502,257,686,575,661,481,650,647,574,642,259,228,308,621,695,640,567,612,494,680,358,312,474];
